% seed = 4864578

mint = 60;
% maxt = 220;

nActs = 42;
dur = [0,5,5,8,6,6,2,4,2,8,5,5,2,5,10,6,9,8,1,10,4,10,7,10,5,3,8,7,10,5,8,4,1,3,3,5,6,4,1,3,6,0];

nSkills = 4;
sreq = [| 0,0,0,0,
	| 2,1,0,4,
	| 1,6,0,4,
	| 5,0,2,6,
	| 0,7,2,6,
	| 5,5,4,0,
	| 4,5,0,4,
	| 0,1,2,4,
	| 0,5,3,7,
	| 4,2,0,4,
	| 3,4,0,6,
	| 6,5,6,0,
	| 5,3,3,0,
	| 2,0,4,4,
	| 4,2,0,4,
	| 4,0,4,5,
	| 3,2,3,0,
	| 4,0,4,6,
	| 0,4,4,7,
	| 0,4,3,2,
	| 0,3,2,5,
	| 0,4,5,4,
	| 7,7,1,0,
	| 2,0,7,2,
	| 4,3,0,2,
	| 3,0,6,6,
	| 2,0,5,7,
	| 4,4,4,0,
	| 3,4,4,0,
	| 3,3,5,0,
	| 2,0,5,5,
	| 2,3,3,0,
	| 0,3,6,7,
	| 2,3,4,0,
	| 0,4,2,4,
	| 4,6,7,0,
	| 0,3,3,2,
	| 7,4,3,0,
	| 3,0,3,6,
	| 5,3,0,4,
	| 4,0,6,6,
	| 0,0,0,0, |];

nResources = 30;
mastery = [| true,true,true,false,
	| false,true,false,false,
	| true,false,false,false,
	| true,false,false,false,
	| true,false,false,false,
	| false,false,false,true,
	| false,true,true,true,
	| false,false,true,false,
	| false,false,false,true,
	| false,false,false,true,
	| true,true,false,true,
	| false,true,false,true,
	| false,true,false,false,
	| true,false,false,true,
	| true,true,false,true,
	| false,true,false,false,
	| false,false,false,true,
	| false,true,true,false,
	| false,false,true,true,
	| true,false,false,true,
	| true,false,false,false,
	| false,false,true,true,
	| true,true,false,true,
	| true,false,false,true,
	| false,false,false,true,
	| true,false,false,false,
	| false,false,false,true,
	| false,true,false,true,
	| false,false,false,true,
	| true,false,true,true, |];

nPrecs = 85;
pred = [1,1,1,2,2,2,3,3,3,4,4,4,5,5,5,6,6,6,7,7,7,8,8,8,9,9,10,10,10,11,11,11,12,12,13,13,13,14,14,14,15,16,16,16,17,17,17,18,18,18,19,19,20,20,21,22,23,23,24,24,24,25,26,27,27,28,28,28,29,29,29,30,30,31,32,33,34,35,35,36,37,38,39,40,41];
succ = [2,3,4,5,6,16,11,38,14,41,14,8,9,10,20,38,7,24,12,11,28,18,27,20,25,23,17,19,12,26,13,29,29,14,17,22,32,18,22,15,36,20,29,22,25,27,30,35,21,23,34,21,25,26,37,30,34,31,27,28,31,39,33,37,40,33,35,32,33,35,30,34,31,36,41,37,40,36,39,40,39,41,42,42,42];

nUnrels = 409;
unpred = [2,2,2,3,3,3,3,3,3,3,3,3,3,3,3,3,4,4,4,4,4,4,4,4,4,4,4,4,4,4,4,4,5,5,5,5,5,5,5,5,5,5,5,6,6,6,6,6,6,7,7,7,7,7,7,7,7,8,8,8,8,8,8,8,8,8,8,8,8,8,8,8,8,8,8,9,9,9,9,9,9,9,9,9,9,9,9,9,9,9,9,9,9,9,9,9,9,9,9,9,10,10,10,10,10,10,10,10,10,10,11,11,11,11,11,11,11,11,11,11,11,11,12,12,12,12,12,12,12,12,12,12,12,12,12,13,13,13,13,13,13,13,13,13,13,13,13,13,13,13,14,14,14,14,14,14,14,14,14,14,14,14,14,14,15,15,15,15,15,15,15,15,15,15,15,15,15,15,15,15,15,15,15,15,15,15,15,15,16,16,16,16,16,16,16,16,16,16,16,17,17,17,17,17,17,17,17,17,17,17,17,17,17,17,18,18,18,18,18,18,18,18,18,18,18,18,18,18,19,19,19,19,19,19,19,19,19,19,19,19,19,19,19,19,19,20,20,20,20,20,20,20,20,20,20,20,20,20,20,20,20,21,21,21,21,21,21,21,21,21,21,21,21,21,21,21,21,21,21,22,22,22,22,22,22,22,22,22,22,22,22,22,22,23,23,23,23,23,23,23,23,23,23,23,23,23,23,24,24,24,24,24,24,25,25,25,25,25,25,25,25,25,25,25,25,25,25,25,26,26,26,26,26,26,26,26,26,26,26,26,27,27,27,27,27,27,27,27,27,27,27,28,28,28,28,28,29,29,29,30,30,30,30,30,30,30,31,31,31,31,31,31,31,31,32,32,32,32,32,32,32,32,33,33,33,33,33,33,34,34,34,34,34,34,35,35,35,36,36,36,36,37,37,37,38,38,39,39,40];
unsucc = [3,4,8,4,5,6,7,8,9,10,12,16,19,20,24,28,5,6,7,9,10,11,12,13,16,17,19,24,28,29,32,38,6,7,8,11,13,16,24,28,32,38,41,8,9,10,16,19,20,8,9,10,16,19,20,24,38,9,10,11,12,13,14,15,16,17,19,22,24,28,29,30,32,38,41,10,11,12,13,14,15,16,17,18,19,20,21,22,24,26,27,28,29,30,32,33,35,37,38,41,11,13,16,20,24,26,28,32,38,41,12,14,15,16,18,19,20,21,23,24,28,38,13,16,17,19,20,24,25,26,27,28,32,38,41,14,15,16,18,19,20,21,23,24,26,28,29,33,35,38,16,17,19,20,24,25,26,27,28,29,32,33,38,41,16,17,18,19,20,21,22,23,24,25,26,27,28,29,30,31,32,33,34,35,37,38,39,41,17,18,19,21,23,24,27,28,32,38,41,18,19,20,21,22,23,24,26,28,29,32,33,35,38,41,19,20,22,24,25,26,27,28,29,30,32,33,38,41,20,22,23,24,25,26,27,28,29,30,31,32,33,35,36,38,41,21,22,23,24,27,28,29,30,31,32,34,35,36,38,40,41,22,23,24,25,26,27,28,29,30,31,32,33,34,35,36,38,40,41,23,24,25,26,27,28,29,32,33,35,37,38,39,41,24,25,26,27,28,29,30,32,33,35,37,38,39,41,25,26,29,30,34,38,26,27,28,29,30,31,32,33,34,35,36,37,38,40,41,27,28,29,30,31,32,34,35,36,38,40,41,28,29,30,31,32,33,34,35,36,38,41,29,30,31,34,38,32,38,41,32,33,35,37,38,39,41,32,33,34,35,37,38,39,41,33,34,35,36,37,38,39,40,34,35,36,38,40,41,35,36,37,38,39,41,37,38,41,37,38,39,41,38,40,41,39,40,40,41,41];

USEFUL_RES = [{},
	{1,2,3,4,5,6,7,9,10,11,12,13,14,15,16,17,18,19,20,21,22,23,24,25,26,27,28,29,30},
	{1,2,3,4,5,6,7,9,10,11,12,13,14,15,16,17,18,19,20,21,22,23,24,25,26,27,28,29,30},
	{1,3,4,5,6,7,8,9,10,11,12,14,15,17,18,19,20,21,22,23,24,25,26,27,28,29,30},
	{1,2,6,7,8,9,10,11,12,13,14,15,16,17,18,19,20,22,23,24,25,27,28,29,30},
	{1,2,3,4,5,7,8,11,12,13,14,15,16,18,19,20,21,22,23,24,26,28,30},
	{1,2,3,4,5,6,7,9,10,11,12,13,14,15,16,17,18,19,20,21,22,23,24,25,26,27,28,29,30},
	{1,2,6,7,8,9,10,11,12,13,14,15,16,17,18,19,20,22,23,24,25,27,28,29,30},
	{1,2,6,7,8,9,10,11,12,13,14,15,16,17,18,19,20,22,23,24,25,27,28,29,30},
	{1,2,3,4,5,6,7,9,10,11,12,13,14,15,16,17,18,19,20,21,22,23,24,25,26,27,28,29,30},
	{1,2,3,4,5,6,7,9,10,11,12,13,14,15,16,17,18,19,20,21,22,23,24,25,26,27,28,29,30},
	{1,2,3,4,5,7,8,11,12,13,14,15,16,18,19,20,21,22,23,24,26,28,30},
	{1,2,3,4,5,7,8,11,12,13,14,15,16,18,19,20,21,22,23,24,26,28,30},
	{1,3,4,5,6,7,8,9,10,11,12,14,15,17,18,19,20,21,22,23,24,25,26,27,28,29,30},
	{1,2,3,4,5,6,7,9,10,11,12,13,14,15,16,17,18,19,20,21,22,23,24,25,26,27,28,29,30},
	{1,3,4,5,6,7,8,9,10,11,12,14,15,17,18,19,20,21,22,23,24,25,26,27,28,29,30},
	{1,2,3,4,5,7,8,11,12,13,14,15,16,18,19,20,21,22,23,24,26,28,30},
	{1,3,4,5,6,7,8,9,10,11,12,14,15,17,18,19,20,21,22,23,24,25,26,27,28,29,30},
	{1,2,6,7,8,9,10,11,12,13,14,15,16,17,18,19,20,22,23,24,25,27,28,29,30},
	{1,2,6,7,8,9,10,11,12,13,14,15,16,17,18,19,20,22,23,24,25,27,28,29,30},
	{1,2,6,7,8,9,10,11,12,13,14,15,16,17,18,19,20,22,23,24,25,27,28,29,30},
	{1,2,6,7,8,9,10,11,12,13,14,15,16,17,18,19,20,22,23,24,25,27,28,29,30},
	{1,2,3,4,5,7,8,11,12,13,14,15,16,18,19,20,21,22,23,24,26,28,30},
	{1,3,4,5,6,7,8,9,10,11,12,14,15,17,18,19,20,21,22,23,24,25,26,27,28,29,30},
	{1,2,3,4,5,6,7,9,10,11,12,13,14,15,16,17,18,19,20,21,22,23,24,25,26,27,28,29,30},
	{1,3,4,5,6,7,8,9,10,11,12,14,15,17,18,19,20,21,22,23,24,25,26,27,28,29,30},
	{1,3,4,5,6,7,8,9,10,11,12,14,15,17,18,19,20,21,22,23,24,25,26,27,28,29,30},
	{1,2,3,4,5,7,8,11,12,13,14,15,16,18,19,20,21,22,23,24,26,28,30},
	{1,2,3,4,5,7,8,11,12,13,14,15,16,18,19,20,21,22,23,24,26,28,30},
	{1,2,3,4,5,7,8,11,12,13,14,15,16,18,19,20,21,22,23,24,26,28,30},
	{1,3,4,5,6,7,8,9,10,11,12,14,15,17,18,19,20,21,22,23,24,25,26,27,28,29,30},
	{1,2,3,4,5,7,8,11,12,13,14,15,16,18,19,20,21,22,23,24,26,28,30},
	{1,2,6,7,8,9,10,11,12,13,14,15,16,17,18,19,20,22,23,24,25,27,28,29,30},
	{1,2,3,4,5,7,8,11,12,13,14,15,16,18,19,20,21,22,23,24,26,28,30},
	{1,2,6,7,8,9,10,11,12,13,14,15,16,17,18,19,20,22,23,24,25,27,28,29,30},
	{1,2,3,4,5,7,8,11,12,13,14,15,16,18,19,20,21,22,23,24,26,28,30},
	{1,2,6,7,8,9,10,11,12,13,14,15,16,17,18,19,20,22,23,24,25,27,28,29,30},
	{1,2,3,4,5,7,8,11,12,13,14,15,16,18,19,20,21,22,23,24,26,28,30},
	{1,3,4,5,6,7,8,9,10,11,12,14,15,17,18,19,20,21,22,23,24,25,26,27,28,29,30},
	{1,2,3,4,5,6,7,9,10,11,12,13,14,15,16,17,18,19,20,21,22,23,24,25,26,27,28,29,30},
	{1,3,4,5,6,7,8,9,10,11,12,14,15,17,18,19,20,21,22,23,24,25,26,27,28,29,30},
	{}];

POTENTIAL_ACT = [{2,3,4,5,6,7,8,9,10,11,12,13,14,15,16,17,18,19,20,21,22,23,24,25,26,27,28,29,30,31,32,33,34,35,36,37,38,39,40,41},
	{2,3,5,6,7,8,9,10,11,12,13,15,17,19,20,21,22,23,25,28,29,30,32,33,34,35,36,37,38,40},
	{2,3,4,6,7,10,11,12,13,14,15,16,17,18,23,24,25,26,27,28,29,30,31,32,34,36,38,39,40,41},
	{2,3,4,6,7,10,11,12,13,14,15,16,17,18,23,24,25,26,27,28,29,30,31,32,34,36,38,39,40,41},
	{2,3,4,6,7,10,11,12,13,14,15,16,17,18,23,24,25,26,27,28,29,30,31,32,34,36,38,39,40,41},
	{2,3,4,5,7,8,9,10,11,14,15,16,18,19,20,21,22,24,25,26,27,31,33,35,37,39,40,41},
	{2,3,4,5,6,7,8,9,10,11,12,13,14,15,16,17,18,19,20,21,22,23,24,25,26,27,28,29,30,31,32,33,34,35,36,37,38,39,40,41},
	{4,5,6,8,9,12,13,14,16,17,18,19,20,21,22,23,24,26,27,28,29,30,31,32,33,34,35,36,37,38,39,41},
	{2,3,4,5,7,8,9,10,11,14,15,16,18,19,20,21,22,24,25,26,27,31,33,35,37,39,40,41},
	{2,3,4,5,7,8,9,10,11,14,15,16,18,19,20,21,22,24,25,26,27,31,33,35,37,39,40,41},
	{2,3,4,5,6,7,8,9,10,11,12,13,14,15,16,17,18,19,20,21,22,23,24,25,26,27,28,29,30,31,32,33,34,35,36,37,38,39,40,41},
	{2,3,4,5,6,7,8,9,10,11,12,13,14,15,16,17,18,19,20,21,22,23,24,25,26,27,28,29,30,31,32,33,34,35,36,37,38,39,40,41},
	{2,3,5,6,7,8,9,10,11,12,13,15,17,19,20,21,22,23,25,28,29,30,32,33,34,35,36,37,38,40},
	{2,3,4,5,6,7,8,9,10,11,12,13,14,15,16,17,18,19,20,21,22,23,24,25,26,27,28,29,30,31,32,33,34,35,36,37,38,39,40,41},
	{2,3,4,5,6,7,8,9,10,11,12,13,14,15,16,17,18,19,20,21,22,23,24,25,26,27,28,29,30,31,32,33,34,35,36,37,38,39,40,41},
	{2,3,5,6,7,8,9,10,11,12,13,15,17,19,20,21,22,23,25,28,29,30,32,33,34,35,36,37,38,40},
	{2,3,4,5,7,8,9,10,11,14,15,16,18,19,20,21,22,24,25,26,27,31,33,35,37,39,40,41},
	{2,3,4,5,6,7,8,9,10,11,12,13,14,15,16,17,18,19,20,21,22,23,24,25,26,27,28,29,30,31,32,33,34,35,36,37,38,39,40,41},
	{2,3,4,5,6,7,8,9,10,11,12,13,14,15,16,17,18,19,20,21,22,23,24,25,26,27,28,29,30,31,32,33,34,35,36,37,38,39,40,41},
	{2,3,4,5,6,7,8,9,10,11,12,13,14,15,16,17,18,19,20,21,22,23,24,25,26,27,28,29,30,31,32,33,34,35,36,37,38,39,40,41},
	{2,3,4,6,7,10,11,12,13,14,15,16,17,18,23,24,25,26,27,28,29,30,31,32,34,36,38,39,40,41},
	{2,3,4,5,6,7,8,9,10,11,12,13,14,15,16,17,18,19,20,21,22,23,24,25,26,27,28,29,30,31,32,33,34,35,36,37,38,39,40,41},
	{2,3,4,5,6,7,8,9,10,11,12,13,14,15,16,17,18,19,20,21,22,23,24,25,26,27,28,29,30,31,32,33,34,35,36,37,38,39,40,41},
	{2,3,4,5,6,7,8,9,10,11,12,13,14,15,16,17,18,19,20,21,22,23,24,25,26,27,28,29,30,31,32,33,34,35,36,37,38,39,40,41},
	{2,3,4,5,7,8,9,10,11,14,15,16,18,19,20,21,22,24,25,26,27,31,33,35,37,39,40,41},
	{2,3,4,6,7,10,11,12,13,14,15,16,17,18,23,24,25,26,27,28,29,30,31,32,34,36,38,39,40,41},
	{2,3,4,5,7,8,9,10,11,14,15,16,18,19,20,21,22,24,25,26,27,31,33,35,37,39,40,41},
	{2,3,4,5,6,7,8,9,10,11,12,13,14,15,16,17,18,19,20,21,22,23,24,25,26,27,28,29,30,31,32,33,34,35,36,37,38,39,40,41},
	{2,3,4,5,7,8,9,10,11,14,15,16,18,19,20,21,22,24,25,26,27,31,33,35,37,39,40,41},
	{2,3,4,5,6,7,8,9,10,11,12,13,14,15,16,17,18,19,20,21,22,23,24,25,26,27,28,29,30,31,32,33,34,35,36,37,38,39,40,41}];
